(set-info :smt-lib-version 2.7)
(set-logic QF_SNIA)
(set-info :source  | 
Generated by: Johannes Bauer
Generated on: 2026-06-21
Generator: mgm A12 Test Data Generator
Application: ELSTER
Target solver: Z3, CVC5
Script is based on the ELSTER form: capital gains tax registration (A / KapEStInvStG)
Characteristic of the form: easy.
In this script, all terms of the form (* x1 x2 x3 ...) are in the form (* x1 c2 c3 ...),
all terms of the form (div x y) are in the form (div x c) and the symbol mod is exclusively used in the form (mod x c),
where x, y, and x1, x2, x3 ... are free constants and c, c2, c3 ... are terms in the form n or (-n) for some numeral n.
The script starts with the base constraints, which define a valid data set for the corresponding form. After the first (push 1), control constraints follow.
The goal of the control constraints in this script is to fill up a data set with values, after the characteristics of the high test coverage were placed.
number variables: 69, number constraints: 60
"https://www.elster.de/eportal/start?locale=en_US"
"https://www.mgm-tp.com/q12-tdg.html"
"https://a12.ai/public-sector"
|)
(set-info :license "https://creativecommons.org/licenses/by/4.0/")
(set-info :category "industrial")
(set-info :major-phase |variable declarations|)
(declare-fun S1-S () String)
(declare-fun S2-S () String)
(declare-fun B3-F () Bool)
(declare-fun S3-S () String)
(declare-fun B4-F () Bool)
(declare-fun B5-F () Bool)
(declare-fun B6-F () Bool)
(declare-fun B7-F () Bool)
(declare-fun I7-y () Int)
(declare-fun B8-F () Bool)
(declare-fun S8-S () String)
(declare-fun B9-F () Bool)
(declare-fun I10 () Int)
(declare-fun I11 () Int)
(declare-fun I12 () Int)
(declare-fun I13 () Int)
(declare-fun I14 () Int)
(declare-fun I15 () Int)
(declare-fun I16-s-y () Int)
(declare-fun I16-s-m () Int)
(declare-fun I16-s-d () Int)
(declare-fun I16-e-y () Int)
(declare-fun I16-e-m () Int)
(declare-fun I16-e-d () Int)
(declare-fun I17 () Int)
(declare-fun I18 () Int)
(declare-fun I19 () Int)
(declare-fun I20 () Int)
(declare-fun I21 () Int)
(declare-fun I22 () Int)
(declare-fun I23-s-y () Int)
(declare-fun I23-s-m () Int)
(declare-fun I23-s-d () Int)
(declare-fun I23-e-y () Int)
(declare-fun I23-e-m () Int)
(declare-fun I23-e-d () Int)
(declare-fun I24 () Int)
(declare-fun I25 () Int)
(declare-fun I26 () Int)
(declare-fun I27 () Int)
(declare-fun I28 () Int)
(declare-fun I29 () Int)
(declare-fun I30 () Int)
(declare-fun I31 () Int)
(declare-fun I32 () Int)
(declare-fun I33 () Int)
(declare-fun I34 () Int)
(declare-fun I35 () Int)
(declare-fun I36 () Int)
(declare-fun B37-F () Bool)
(declare-fun I37-y () Int)
(declare-fun I37-m () Int)
(declare-fun I37-d () Int)
(declare-fun B38-F () Bool)
(declare-fun B39-F () Bool)
(declare-fun I39 () Int)
(declare-fun B40-F () Bool)
(declare-fun I40 () Int)
(declare-fun B41-F () Bool)
(declare-fun B42-F () Bool)
(declare-fun B43-F () Bool)
(declare-fun B44-F () Bool)
(declare-fun B45-F () Bool)
(declare-fun B46-F () Bool)
(declare-fun B47-F () Bool)
(declare-fun B48-F () Bool)
(declare-fun B49-F () Bool)
(declare-fun B50-F () Bool)
(declare-fun B51-F () Bool)
(set-info :major-phase |base constraints|)
(set-info :base-constraint-type ||)
(assert (or (and (= 0 (ite B7-F I7-y 0)) (< 0 (- (str.to_int (ite B8-F S8-S "")) 4))) (and (distinct 0 (ite B7-F I7-y 0)) (< 0 (- (ite B7-F I7-y 0) 1))) (and (distinct 0 (ite B7-F I7-y 0)) (= 0 (- (ite B7-F I7-y 0) 1)))))
(set-info :base-constraint-type |constraints defining hierarchy (group is filled, if a child is filled)|)
(assert (not (or B37-F B38-F)))
(assert (= B38-F (or B39-F B40-F)))
(assert (= B41-F (or B42-F B43-F)))
(assert (= B44-F (or B45-F B46-F)))
(assert (= B46-F (or B47-F B48-F B49-F B50-F)))
(set-info :base-constraint-type |domainconstraints number-fields|)
(assert (ite B39-F (and (<= I39 999999999999) (>= I39 0)) (= I39 0)))
(assert (ite B40-F (and (<= I40 999999999999) (>= I40 0)) (= I40 0)))
(assert (= I10 0))
(assert (= I11 0))
(assert (= I12 0))
(assert (= I13 0))
(assert (= I14 0))
(assert (= I15 0))
(assert (= I30 0))
(assert (= I31 0))
(assert (= I32 0))
(assert (= I33 0))
(assert (= I34 0))
(assert (= I35 0))
(assert (= I36 0))
(assert (= I17 0))
(assert (= I18 0))
(assert (= I19 0))
(assert (= I20 0))
(assert (= I21 0))
(assert (= I22 0))
(assert (= I24 0))
(assert (= I25 0))
(assert (= I26 0))
(assert (= I27 0))
(assert (= I28 0))
(assert (= I29 0))
(set-info :base-constraint-type |domainconstraints date-fields|)
(assert (and (ite B37-F (and (> I37-y 1900) (< I37-y 2100)) (= I37-y 0)) (ite B37-F (and (> I37-m 0) (<= I37-m 12)) (= I37-m 0)) (ite B37-F (and (> I37-d 0) (<= I37-d (ite (or (= I37-m 0) (= I37-m 1) (= I37-m 3) (= I37-m 5) (= I37-m 7) (= I37-m 8) (= I37-m 10) (= I37-m 12)) 31 (ite (or (= I37-m 4) (= I37-m 6) (= I37-m 9) (= I37-m 11)) 30 (ite (= (mod I37-y 4) 0) 29 28))))) (= I37-d 0))))
(assert (ite B7-F (and (> I7-y 1900) (< I7-y 2100)) (= I7-y 0)))
(assert (or (< I16-s-y I16-e-y) (and (= I16-s-y I16-e-y) (< I16-s-m I16-e-m)) (and (= I16-s-y I16-e-y) (= I16-s-m I16-e-m) (<= I16-s-d I16-e-d))))
(assert (or (< I23-s-y I23-e-y) (and (= I23-s-y I23-e-y) (< I23-s-m I23-e-m)) (and (= I23-s-y I23-e-y) (= I23-s-m I23-e-m) (<= I23-s-d I23-e-d))))
(set-info :base-constraint-type |domainconstraints index-based string fields|)
(assert (or (= S2-S "0") (= S2-S "1")))
(assert (ite B8-F (or (= S8-S "11") (= S8-S "01") (= S8-S "12") (= S8-S "02") (= S8-S "03") (= S8-S "04") (= S8-S "05") (= S8-S "06") (= S8-S "07") (= S8-S "08") (= S8-S "09") (= S8-S "10")) (= S8-S "")))
(assert (or (= S1-S "2216060427666") (= S1-S "2815094023008") (= S1-S "1060048649864") (= S1-S "2348008413417") (= S1-S "2702024686052") (= S1-S "3207051220872") (= S1-S "1123012960769") (= S1-S "5103096558745") (= S1-S "2632041436639") (= S1-S "3103071321727") (= S1-S "3062087900803") (= S1-S "9170050074951") (= S1-S "4084068125545") (= S1-S "2460083378687") (= S1-S "2189063488000")))
(assert (ite B3-F (or (= S3-S "2216060427666") (= S3-S "2815094023008") (= S3-S "1060048649864") (= S3-S "2348008413417") (= S3-S "2702024686052") (= S3-S "3207051220872") (= S3-S "1123012960769") (= S3-S "5103096558745") (= S3-S "2632041436639") (= S3-S "3103071321727") (= S3-S "3062087900803") (= S3-S "9170050074951") (= S3-S "4084068125545") (= S3-S "2460083378687") (= S3-S "2189063488000")) (= S3-S "")))
(set-info :base-constraint-type |constraints from validation-rules|)
(assert (not (and B40-F B39-F (distinct I39 0) (distinct I40 (div (* I39 15) 100)))))
(assert (not (and B37-F (or (< I37-y 2025) (> I37-y 2025)))))
(assert (not (and (or B43-F B42-F) (not (and B43-F B42-F)))))
(assert (not (and B7-F (or (< I7-y 2025) (> I7-y 2025)))))
(assert (not B37-F))
(assert (and B7-F B8-F))
(assert (not (and B7-F B8-F (or (< 2026 I7-y) (and (= 2026 I7-y) (<= 6 (str.to_int S8-S)))))))
(assert (not (and B7-F B8-F (or (< 2027 I7-y) (and (= 2027 I7-y) (<= 6 (str.to_int S8-S)))))))
(assert (not (and B45-F (not (and B47-F B48-F)))))
(assert (not (and (not B45-F) (or B47-F B48-F))))
(assert (not (and B3-F (= S2-S "0"))))
(assert (not (and B3-F (= S3-S S1-S))))
(set-info :major-phase |control constraints|)
(push 1)
(assert B48-F)
(set-info :status sat)
(check-sat)
(push 1)
(assert B6-F)
(set-info :status sat)
(check-sat)
(push 1)
(assert B50-F)
(set-info :status sat)
(check-sat)
(push 1)
(assert B4-F)
(set-info :status sat)
(check-sat)
(push 1)
(assert B49-F)
(set-info :status sat)
(check-sat)
(push 1)
(assert B47-F)
(set-info :status sat)
(check-sat)
(push 1)
(assert B8-F)
(set-info :status sat)
(check-sat)
(push 1)
(assert B45-F)
(set-info :status sat)
(check-sat)
(push 1)
(assert B43-F)
(set-info :status sat)
(check-sat)
(push 1)
(assert B51-F)
(set-info :status sat)
(check-sat)
(push 1)
(assert B5-F)
(set-info :status sat)
(check-sat)
(push 1)
(assert B7-F)
(set-info :status sat)
(check-sat)
(push 1)
(assert B37-F)
(set-info :status unsat)
(check-sat)
(pop 1)
(push 1)
(assert B3-F)
(set-info :status sat)
(check-sat)
(push 1)
(assert B9-F)
(set-info :status sat)
(check-sat)
(push 1)
(assert B42-F)
(set-info :status sat)
(check-sat)
(push 1)
(assert B39-F)
(set-info :status unsat)
(check-sat)
(pop 1)
(push 1)
(assert B40-F)
(set-info :status unsat)
(check-sat)
(pop 1)
(set-info :status sat)
(check-sat)
(exit)

